x04m01e9t1tp5
3351
3351
3351
3351
3351
3351
3351
3351
3351
3351
3351
3351
3351
3351
3351
3351
3351
3351
3351
3351
3351
3351
3366
3366
3366
3366
3366
3366
3532
3532
3532
3532
3532
3532
3532
3532
3532
3532
3532
3532
3532
3532
3532
3532
3532
3820
3820
3820
3820
3820
3820
3820
3820
3820
3820
3820
3820
3820
3820
3820
3820
3820
3820
3820
3820
3820
3820
3820
3820
3820
3820
3820
3820
3820
3820
3820
3820
3820
3820
3820
3820
3820
3820
3820
3820
3820
3820
3820
3820
3820
3820
3820
3820
3820
3820
3820
3820
3876
3876
3876
3876
3876
3876
3876
3876
3876
3876
3876
3876
3876
3876
3876
3876
3876
3876
3876
3876
3876
3876
3876
3876
3876
3876
3876
3876
3876
3876
3876
3876
3876
3876
3876
3876
3876
3876
3876
3876
3876
3876
3876
3876
3876
3876
3876
3876
3876
3876
3876
3876
3876
3876
3876
3876
3876
3876
3876
3876
3876
3876
3876
3876
3876
3876
3876
3876
3876
3876
3876
3876
3876
3876
3876
3876
3876
3876
3876
3876
3876
3876
3876
3876
3876
3876
3876
3876
3876
3876
3876
3876
3876
3876
3876
3876
3876
3876
3876
3876
3876
3876
3876
3876
3876
3876
3876
3876
3876
3876
3876
3876
3876
3876
3876
3876
3876
3876
3876
3876
3876
3876
3876
3876
3876
3876
3876
3876
3876
3876
3876
3876
3876
3876
3876
3876
3876
3876
3876
3876
3876
3876
3876
3876
3876
3876
3876
3876
3876
3876
3876
3876
3876
3876
3876
3876
3876
3876
3876
3876
3876
3876
3876
3876
3876
3876
3876
3876
3876
3876
3876
3876
3876
3876
3876
3876
3876
3876
3876
3876
3876
3876
3876
3876
3876
3876
3876
3876
3876
3876
3876
3876
3876
3876
3876
3876
3876
3876
3876
3876
3876
3876
3876
3876
3876
3876
3876
3876
3876
3876
3876
3876
3876
3876
3876
3876
3876
3876
3876
3876
3876
3876
3876
3876
3876
3876
3876
3876
3876
3876
3876
3876
3876
3876
3876
3876
3876
3876
3876
3947
3947
3947
3947
3947
3947
3947
3947
3983
3983
3983
3983
3983
3983
3983
3983
3983
3983
3983
3983
3983
3983
3983
3983
3983
3983
3983
3983
3983
3983
3983
3983
3983
3983
3983
3983
3983
3983
3983
3983
3983
3983
3983
3983
3983
3983
3983
3983
3983
3983
3983
3983
3983
3983
3983
3983
3983
3983
3983
3983
3983
3983
3983
3983
3983
3983
3983
3983
3983
3983
3983
3983
3983
3983
3983
3983
3983
3983
3983
3983
3983
3983
3983
3983
3983
3983
3983
3983
3983
3983
3983
3983
3983
3983
3983
3983
3983
3983
3983
3983
3983
3983
3983
3983
3983
3983
3983
3983
3983
3983
3983
3983
3983
3983
3983
3983
3983
3983
3983
3983
3983
3983
3983
3983
3983
3983
3983
3983
3983
3983
3983
3983
3983
3983
3983
3983
3983
3983
3983
3983
3983
3983
3983
3983
3983
3983
3983
3983
3983
3983
3983
3983
3983
3983
3983
3983
3983
3983
3983
3983
3983
3983
3983
3983
3983
3983
3983
3983
3983
3983
3983
3983
3983
3983
3983
3983
3983
3983
3983
3983
3983
3983
3983
3983
3983
3983
3983
3983
3983
3983
3983
3983
3983
3983
3983
3983
3983
3983
3983
3983
3983
3983
3983
3983
3983
3983
3983
3983
3983
3983
3983
3983
3983
3983
3983
3983
3983
3983
3983
3983
3983
3983
3983
3983
3983
3983
3983
3983
3983
3983
3983
3983
3983
3983
3983
3983
3983
3983
3983
3983
3983
3983
3983
3983
3983
3983
3983
3983
3983
3983
3983
3983
3983
3983
3983
3983
3983
3983
3983
3983
3983
3983
3983
3983
4021
4021
4021
4021
4021
4021
4021
4021
4021
4021
4021
4021
4021
4021
4021
4021
4021
4021
4021
4021
4021
4021
4021
4021
4021
4021
4021
4021
4021
4021
4021
4021
4021
4021
4021
4021
4021
4021
4021
4021
4021
4021
4021
4021
4021
4021
4021
4021
4021
4021
4021
4021
4021
4021
4021
4021
4021
4021
4021
4021
4021
4021
4021
4021
4021
4021
4021
4021
4021
4021
4021
4021
4021
4021
4021
4021
4021
4021
4021
4021
4021
4021
4021
4021
4021
4021
4021
4021
4021
4021
4021
4021
4021
4021
4021
4021
4021
4021
4021
4021
4021
4021
4031
4031
4031
4031
4031
4031
4031
4031
4031
4031
4031
4031
4031
4031
4031
4031
4031
4031
4031
4031
4031
4031
4031
4031
4031
4031
4031
4031
4031
4031
4031
4031
4031
4031
4031
4031
4031
4031
4031
4031
4031
4031
4031
4031
4031
4031
4031
4031
4031
4031
4031
4031
4031
4031
4031
4031
4031
4031
4031
4031
4031
4031
4031
4031
4031
4031
4031
4031
4031
4031
4031
4031
4031
4031
4031
4031
4031
4031
4031
4031
4031
4031
4031
4031
4031
4031
4031
4031
4031
4031
4031
4031
4031
4031
4031
4031
4031
4031
4031
4031
4031
4031
4031
4031
4031
4031
4031
4031
4031
4031
4031
4031
4031
4031
4031
4031
4031
4031
4031
4031
4031
4031
4031
4031
4031
4031
4031
4031
4031
4031
4031
4031
4031
4031
4031
4031
4031
4031
4031
4031
4031
4031
4031
4031
4031
4031
4031
4031
4031
4031
4031
4031
4031
4031
4031
4031
4031
4031
4031
4031
4031
4031
4031
4031
4031
4031
4031
4031
4031
4031
4031
4031
4031
4031
4031
4031
4031
4031
4031
4031
4031
4031
4031
4031
4031
4031
4031
4031
4031
4031
4031
4031
4031
4031
4031
4031
4031
4031
4031
4031
4031
4031
4031
4031
4031
4031
4031
4031
4031
4031
4031
4031
4031
4031
4031
4031
4031
4031
4031
4031
4031
4031
4031
4031
4031
4031
4031
4031
4031
4031
4031
4031
4031
4031
4031
4031
4031
4031
4031
4031
4031
4031
4031
4031
4031
4031
4031
4031
4031
4031
4031
4031
4031
4031
4031
4031
4031
4031
4031
4031
4031
4031
4031
4031
4031
4031
4031
4031
4031
4031
4031
4031
4031
4031
4031
4031
4031
4031
4031
4031
4031
4031
4031
4031
4031
4031
4031
4031
4031
4031
4031
4031
4031
4031
4031
4031
4031
4031
